p cnf 12 35
-12 11 3 0
-12 -11 -3 0
12 -10 -2 0
-12 -10 -1 0
-12 -9 8 0
12 9 6 0
-12 -8 -6 0
12 -7 -2 0
12 7 -1 0
12 -6 -4 0
12 -6 1 0
-12 -5 3 0
12 -5 3 0
11 -8 -7 0
11 8 6 0
11 8 -5 0
11 -8 4 0
11 8 2 0
11 -7 3 0
-10 -9 -2 0
10 8 5 0
9 -8 -5 0
9 -8 5 0
9 6 2 0
9 5 -3 0
9 5 2 0
9 -5 2 0
-8 7 5 0
-8 7 2 0
-8 7 -1 0
8 -6 -1 0
-7 6 -4 0
-6 -3 1 0
5 -4 -3 0
5 -3 -2 0
